
Gurobi 12.0.2 (win64) logging started Tue Nov 25 19:38:59 2025

Set parameter LogFile to value "C:\Ioana\_uni\honours\slp\algorithm\Main_files\results\paracetamol_respiration_improved\Task_003_Sample007_irr_gurobi.log"
Gurobi Optimizer version 12.0.2 build v12.0.2rc0 (win64 - Windows 11.0 (26100.2))

CPU model: Intel(R) Core(TM) Ultra 5 125H, instruction set [SSE2|AVX|AVX2]
Thread count: 14 physical cores, 18 logical processors, using up to 18 threads

Non-default parameters:
TimeLimit  2200

Optimize a model with 47236 rows, 34504 columns and 146714 nonzeros
Model fingerprint: 0x12a7e388
Variable types: 17255 continuous, 17249 integer (17249 binary)
Coefficient statistics:
  Matrix range     [1e-04, 8e+04]
  Objective range  [1e-04, 9e-01]
  Bounds range     [1e+00, 1e+03]
  RHS range        [1e+00, 1e+00]
Presolve removed 30835 rows and 21551 columns
Presolve time: 0.34s
Presolved: 16401 rows, 12953 columns, 54580 nonzeros
Variable types: 6410 continuous, 6543 integer (6543 binary)

Root relaxation: objective 1.857899e-04, 706 iterations, 0.04 seconds (0.05 work units)

    Nodes    |    Current Node    |     Objective Bounds      |     Work
 Expl Unexpl |  Obj  Depth IntInf | Incumbent    BestBd   Gap | It/Node Time

     0     0    0.00019    0   12          -    0.00019      -     -    0s
H    0     0                       0.1423463    0.00019   100%     -    0s
H    0     0                       0.1220952    0.00019   100%     -    0s
     0     0    0.02079    0   21    0.12210    0.02079  83.0%     -    0s
     0     0    0.02626    0   11    0.12210    0.02626  78.5%     -    0s
     0     0    0.10100    0    7    0.12210    0.10100  17.3%     -    1s
     0     0          -    0         0.12210    0.12209  0.01%     -    1s

Cutting planes:
  Gomory: 1
  Cover: 3
  Implied bound: 3
  Clique: 1
  MIR: 15
  Flow cover: 12
  Flow path: 4
  Network: 2
  Relax-and-lift: 2

Explored 1 nodes (3299 simplex iterations) in 1.18 seconds (1.04 work units)
Thread count was 18 (of 18 available processors)

Solution count 2: 0.122095 0.142346 

Optimal solution found (tolerance 1.00e-04)
Best objective 1.220951889795e-01, best bound 1.220885643559e-01, gap 0.0054%
